p cnf 32 22
c        1 string_INIT_PATH_EQ_/usr/bin/init
c        2 string_ARCH_EQ_i386
c        3 int_VFS_MAX_OPENFILES_EQ_500
c        4 int_VFS_MAX_OPENFILES_EQ_OTHERVAL
c        5 int_VFS_MAX_MOUNTPOINTS_EQ_50
c        6 int_VFS_MAX_MOUNTPOINTS_EQ_OTHERVAL
c        7 int_PIT_RATE_EQ_1000
c        8 int_PIT_RATE_EQ_OTHERVAL
c        9 int_LOG_SERIAL_LEVEL_EQ_0
c       10 int_LOG_SERIAL_LEVEL_EQ_OTHERVAL
c       11 int_LOG_PRINT_LEVEL_EQ_2
c       12 int_LOG_PRINT_LEVEL_EQ_OTHERVAL
c       13 hex_EXECDATA_LOCATION_EQ_0x5000
c       14 hex_EXECDATA_LOCATION_EQ_OTHERVAL
c       15 boolean_SYSCALL_DEBUG
c       16 boolean_SOCKET_DEBUG
c       17 boolean_LOG_STORE
c       18 boolean_KMALLOC_DEBUG
c       19 boolean_KMALLOC_CHECK
c       20 boolean_INTERRUPTS_DEBUG
c       21 boolean_ENABLE_VIRTIO_BLOCK
c       22 boolean_ENABLE_NE2K
c       23 int_RTL8139_MAX_CARDS_EQ_4
c       24 int_RTL8139_MAX_CARDS_EQ_OTHERVAL
c       25 boolean_ENABLE_RTL8139
c       26 boolean_ENABLE_VIRTIO_NET
c       27 boolean_ENABLE_PICOTCP
c       28 boolean_EXT2_DEBUG
c       29 boolean_ENABLE_EXT2
c       30 boolean_ENABLE_AC97
c       31 boolean_ELF_DEBUG
c       32 boolean_BITMAP_DEBUG
-14 -15 0
14 15 0
-12 -13 0
12 13 0
-10 -11 0
10 11 0
-8 -9 0
8 9 0
-6 -7 0
6 7 0
-4 -5 0
4 5 0
3 0
2 0
28 -23 0
28 -26 0
28 -27 0
30 -29 0
-24 -25 0
24 25 -26 0
26 -25 0
26 -24 0
